graphs/queen14_14.col
p edge 196 4186
e 1 2
e 1 3
e 1 4
e 1 5
e 1 6
e 1 7
e 1 8
e 1 9
e 1 10
e 1 11
e 1 12
e 1 13
e 1 14
e 1 15
e 1 16
e 1 29
e 1 31
e 1 43
e 1 46
e 1 57
e 1 61
e 1 71
e 1 76
e 1 85
e 1 91
e 1 99
e 1 106
e 1 113
e 1 121
e 1 127
e 1 136
e 1 141
e 1 151
e 1 155
e 1 166
e 1 169
e 1 181
e 1 183
e 1 196
e 2 3
e 2 4
e 2 5
e 2 6
e 2 7
e 2 8
e 2 9
e 2 10
e 2 11
e 2 12
e 2 13
e 2 14
e 2 15
e 2 16
e 2 17
e 2 30
e 2 32
e 2 44
e 2 47
e 2 58
e 2 62
e 2 72
e 2 77
e 2 86
e 2 92
e 2 100
e 2 107
e 2 114
e 2 122
e 2 128
e 2 137
e 2 142
e 2 152
e 2 156
e 2 167
e 2 170
e 2 182
e 2 184
e 3 4
e 3 5
e 3 6
e 3 7
e 3 8
e 3 9
e 3 10
e 3 11
e 3 12
e 3 13
e 3 14
e 3 16
e 3 17
e 3 18
e 3 29
e 3 31
e 3 33
e 3 45
e 3 48
e 3 59
e 3 63
e 3 73
e 3 78
e 3 87
e 3 93
e 3 101
e 3 108
e 3 115
e 3 123
e 3 129
e 3 138
e 3 143
e 3 153
e 3 157
e 3 168
e 3 171
e 3 185
e 4 5
e 4 6
e 4 7
e 4 8
e 4 9
e 4 10
e 4 11
e 4 12
e 4 13
e 4 14
e 4 17
e 4 18
e 4 19
e 4 30
e 4 32
e 4 34
e 4 43
e 4 46
e 4 49
e 4 60
e 4 64
e 4 74
e 4 79
e 4 88
e 4 94
e 4 102
e 4 109
e 4 116
e 4 124
e 4 130
e 4 139
e 4 144
e 4 154
e 4 158
e 4 172
e 4 186
e 5 6
e 5 7
e 5 8
e 5 9
e 5 10
e 5 11
e 5 12
e 5 13
e 5 14
e 5 18
e 5 19
e 5 20
e 5 31
e 5 33
e 5 35
e 5 44
e 5 47
e 5 50
e 5 57
e 5 61
e 5 65
e 5 75
e 5 80
e 5 89
e 5 95
e 5 103
e 5 110
e 5 117
e 5 125
e 5 131
e 5 140
e 5 145
e 5 159
e 5 173
e 5 187
e 6 7
e 6 8
e 6 9
e 6 10
e 6 11
e 6 12
e 6 13
e 6 14
e 6 19
e 6 20
e 6 21
e 6 32
e 6 34
e 6 36
e 6 45
e 6 48
e 6 51
e 6 58
e 6 62
e 6 66
e 6 71
e 6 76
e 6 81
e 6 90
e 6 96
e 6 104
e 6 111
e 6 118
e 6 126
e 6 132
e 6 146
e 6 160
e 6 174
e 6 188
e 7 8
e 7 9
e 7 10
e 7 11
e 7 12
e 7 13
e 7 14
e 7 20
e 7 21
e 7 22
e 7 33
e 7 35
e 7 37
e 7 46
e 7 49
e 7 52
e 7 59
e 7 63
e 7 67
e 7 72
e 7 77
e 7 82
e 7 85
e 7 91
e 7 97
e 7 105
e 7 112
e 7 119
e 7 133
e 7 147
e 7 161
e 7 175
e 7 189
e 8 9
e 8 10
e 8 11
e 8 12
e 8 13
e 8 14
e 8 21
e 8 22
e 8 23
e 8 34
e 8 36
e 8 38
e 8 47
e 8 50
e 8 53
e 8 60
e 8 64
e 8 68
e 8 73
e 8 78
e 8 83
e 8 86
e 8 92
e 8 98
e 8 99
e 8 106
e 8 120
e 8 134
e 8 148
e 8 162
e 8 176
e 8 190
e 9 10
e 9 11
e 9 12
e 9 13
e 9 14
e 9 22
e 9 23
e 9 24
e 9 35
e 9 37
e 9 39
e 9 48
e 9 51
e 9 54
e 9 61
e 9 65
e 9 69
e 9 74
e 9 79
e 9 84
e 9 87
e 9 93
e 9 100
e 9 107
e 9 113
e 9 121
e 9 135
e 9 149
e 9 163
e 9 177
e 9 191
e 10 11
e 10 12
e 10 13
e 10 14
e 10 23
e 10 24
e 10 25
e 10 36
e 10 38
e 10 40
e 10 49
e 10 52
e 10 55
e 10 62
e 10 66
e 10 70
e 10 75
e 10 80
e 10 88
e 10 94
e 10 101
e 10 108
e 10 114
e 10 122
e 10 127
e 10 136
e 10 150
e 10 164
e 10 178
e 10 192
e 11 12
e 11 13
e 11 14
e 11 24
e 11 25
e 11 26
e 11 37
e 11 39
e 11 41
e 11 50
e 11 53
e 11 56
e 11 63
e 11 67
e 11 76
e 11 81
e 11 89
e 11 95
e 11 102
e 11 109
e 11 115
e 11 123
e 11 128
e 11 137
e 11 141
e 11 151
e 11 165
e 11 179
e 11 193
e 12 13
e 12 14
e 12 25
e 12 26
e 12 27
e 12 38
e 12 40
e 12 42
e 12 51
e 12 54
e 12 64
e 12 68
e 12 77
e 12 82
e 12 90
e 12 96
e 12 103
e 12 110
e 12 116
e 12 124
e 12 129
e 12 138
e 12 142
e 12 152
e 12 155
e 12 166
e 12 180
e 12 194
e 13 14
e 13 26
e 13 27
e 13 28
e 13 39
e 13 41
e 13 52
e 13 55
e 13 65
e 13 69
e 13 78
e 13 83
e 13 91
e 13 97
e 13 104
e 13 111
e 13 117
e 13 125
e 13 130
e 13 139
e 13 143
e 13 153
e 13 156
e 13 167
e 13 169
e 13 181
e 13 195
e 14 27
e 14 28
e 14 40
e 14 42
e 14 53
e 14 56
e 14 66
e 14 70
e 14 79
e 14 84
e 14 92
e 14 98
e 14 105
e 14 112
e 14 118
e 14 126
e 14 131
e 14 140
e 14 144
e 14 154
e 14 157
e 14 168
e 14 170
e 14 182
e 14 183
e 14 196
e 15 16
e 15 17
e 15 18
e 15 19
e 15 20
e 15 21
e 15 22
e 15 23
e 15 24
e 15 25
e 15 26
e 15 27
e 15 28
e 15 29
e 15 30
e 15 43
e 15 45
e 15 57
e 15 60
e 15 71
e 15 75
e 15 85
e 15 90
e 15 99
e 15 105
e 15 113
e 15 120
e 15 127
e 15 135
e 15 141
e 15 150
e 15 155
e 15 165
e 15 169
e 15 180
e 15 183
e 15 195
e 16 17
e 16 18
e 16 19
e 16 20
e 16 21
e 16 22
e 16 23
e 16 24
e 16 25
e 16 26
e 16 27
e 16 28
e 16 29
e 16 30
e 16 31
e 16 44
e 16 46
e 16 58
e 16 61
e 16 72
e 16 76
e 16 86
e 16 91
e 16 100
e 16 106
e 16 114
e 16 121
e 16 128
e 16 136
e 16 142
e 16 151
e 16 156
e 16 166
e 16 170
e 16 181
e 16 184
e 16 196
e 17 18
e 17 19
e 17 20
e 17 21
e 17 22
e 17 23
e 17 24
e 17 25
e 17 26
e 17 27
e 17 28
e 17 30
e 17 31
e 17 32
e 17 43
e 17 45
e 17 47
e 17 59
e 17 62
e 17 73
e 17 77
e 17 87
e 17 92
e 17 101
e 17 107
e 17 115
e 17 122
e 17 129
e 17 137
e 17 143
e 17 152
e 17 157
e 17 167
e 17 171
e 17 182
e 17 185
e 18 19
e 18 20
e 18 21
e 18 22
e 18 23
e 18 24
e 18 25
e 18 26
e 18 27
e 18 28
e 18 31
e 18 32
e 18 33
e 18 44
e 18 46
e 18 48
e 18 57
e 18 60
e 18 63
e 18 74
e 18 78
e 18 88
e 18 93
e 18 102
e 18 108
e 18 116
e 18 123
e 18 130
e 18 138
e 18 144
e 18 153
e 18 158
e 18 168
e 18 172
e 18 186
e 19 20
e 19 21
e 19 22
e 19 23
e 19 24
e 19 25
e 19 26
e 19 27
e 19 28
e 19 32
e 19 33
e 19 34
e 19 45
e 19 47
e 19 49
e 19 58
e 19 61
e 19 64
e 19 71
e 19 75
e 19 79
e 19 89
e 19 94
e 19 103
e 19 109
e 19 117
e 19 124
e 19 131
e 19 139
e 19 145
e 19 154
e 19 159
e 19 173
e 19 187
e 20 21
e 20 22
e 20 23
e 20 24
e 20 25
e 20 26
e 20 27
e 20 28
e 20 33
e 20 34
e 20 35
e 20 46
e 20 48
e 20 50
e 20 59
e 20 62
e 20 65
e 20 72
e 20 76
e 20 80
e 20 85
e 20 90
e 20 95
e 20 104
e 20 110
e 20 118
e 20 125
e 20 132
e 20 140
e 20 146
e 20 160
e 20 174
e 20 188
e 21 22
e 21 23
e 21 24
e 21 25
e 21 26
e 21 27
e 21 28
e 21 34
e 21 35
e 21 36
e 21 47
e 21 49
e 21 51
e 21 60
e 21 63
e 21 66
e 21 73
e 21 77
e 21 81
e 21 86
e 21 91
e 21 96
e 21 99
e 21 105
e 21 111
e 21 119
e 21 126
e 21 133
e 21 147
e 21 161
e 21 175
e 21 189
e 22 23
e 22 24
e 22 25
e 22 26
e 22 27
e 22 28
e 22 35
e 22 36
e 22 37
e 22 48
e 22 50
e 22 52
e 22 61
e 22 64
e 22 67
e 22 74
e 22 78
e 22 82
e 22 87
e 22 92
e 22 97
e 22 100
e 22 106
e 22 112
e 22 113
e 22 120
e 22 134
e 22 148
e 22 162
e 22 176
e 22 190
e 23 24
e 23 25
e 23 26
e 23 27
e 23 28
e 23 36
e 23 37
e 23 38
e 23 49
e 23 51
e 23 53
e 23 62
e 23 65
e 23 68
e 23 75
e 23 79
e 23 83
e 23 88
e 23 93
e 23 98
e 23 101
e 23 107
e 23 114
e 23 121
e 23 127
e 23 135
e 23 149
e 23 163
e 23 177
e 23 191
e 24 25
e 24 26
e 24 27
e 24 28
e 24 37
e 24 38
e 24 39
e 24 50
e 24 52
e 24 54
e 24 63
e 24 66
e 24 69
e 24 76
e 24 80
e 24 84
e 24 89
e 24 94
e 24 102
e 24 108
e 24 115
e 24 122
e 24 128
e 24 136
e 24 141
e 24 150
e 24 164
e 24 178
e 24 192
e 25 26
e 25 27
e 25 28
e 25 38
e 25 39
e 25 40
e 25 51
e 25 53
e 25 55
e 25 64
e 25 67
e 25 70
e 25 77
e 25 81
e 25 90
e 25 95
e 25 103
e 25 109
e 25 116
e 25 123
e 25 129
e 25 137
e 25 142
e 25 151
e 25 155
e 25 165
e 25 179
e 25 193
e 26 27
e 26 28
e 26 39
e 26 40
e 26 41
e 26 52
e 26 54
e 26 56
e 26 65
e 26 68
e 26 78
e 26 82
e 26 91
e 26 96
e 26 104
e 26 110
e 26 117
e 26 124
e 26 130
e 26 138
e 26 143
e 26 152
e 26 156
e 26 166
e 26 169
e 26 180
e 26 194
e 27 28
e 27 40
e 27 41
e 27 42
e 27 53
e 27 55
e 27 66
e 27 69
e 27 79
e 27 83
e 27 92
e 27 97
e 27 105
e 27 111
e 27 118
e 27 125
e 27 131
e 27 139
e 27 144
e 27 153
e 27 157
e 27 167
e 27 170
e 27 181
e 27 183
e 27 195
e 28 41
e 28 42
e 28 54
e 28 56
e 28 67
e 28 70
e 28 80
e 28 84
e 28 93
e 28 98
e 28 106
e 28 112
e 28 119
e 28 126
e 28 132
e 28 140
e 28 145
e 28 154
e 28 158
e 28 168
e 28 171
e 28 182
e 28 184
e 28 196
e 29 30
e 29 31
e 29 32
e 29 33
e 29 34
e 29 35
e 29 36
e 29 37
e 29 38
e 29 39
e 29 40
e 29 41
e 29 42
e 29 43
e 29 44
e 29 57
e 29 59
e 29 71
e 29 74
e 29 85
e 29 89
e 29 99
e 29 104
e 29 113
e 29 119
e 29 127
e 29 134
e 29 141
e 29 149
e 29 155
e 29 164
e 29 169
e 29 179
e 29 183
e 29 194
e 30 31
e 30 32
e 30 33
e 30 34
e 30 35
e 30 36
e 30 37
e 30 38
e 30 39
e 30 40
e 30 41
e 30 42
e 30 43
e 30 44
e 30 45
e 30 58
e 30 60
e 30 72
e 30 75
e 30 86
e 30 90
e 30 100
e 30 105
e 30 114
e 30 120
e 30 128
e 30 135
e 30 142
e 30 150
e 30 156
e 30 165
e 30 170
e 30 180
e 30 184
e 30 195
e 31 32
e 31 33
e 31 34
e 31 35
e 31 36
e 31 37
e 31 38
e 31 39
e 31 40
e 31 41
e 31 42
e 31 44
e 31 45
e 31 46
e 31 57
e 31 59
e 31 61
e 31 73
e 31 76
e 31 87
e 31 91
e 31 101
e 31 106
e 31 115
e 31 121
e 31 129
e 31 136
e 31 143
e 31 151
e 31 157
e 31 166
e 31 171
e 31 181
e 31 185
e 31 196
e 32 33
e 32 34
e 32 35
e 32 36
e 32 37
e 32 38
e 32 39
e 32 40
e 32 41
e 32 42
e 32 45
e 32 46
e 32 47
e 32 58
e 32 60
e 32 62
e 32 71
e 32 74
e 32 77
e 32 88
e 32 92
e 32 102
e 32 107
e 32 116
e 32 122
e 32 130
e 32 137
e 32 144
e 32 152
e 32 158
e 32 167
e 32 172
e 32 182
e 32 186
e 33 34
e 33 35
e 33 36
e 33 37
e 33 38
e 33 39
e 33 40
e 33 41
e 33 42
e 33 46
e 33 47
e 33 48
e 33 59
e 33 61
e 33 63
e 33 72
e 33 75
e 33 78
e 33 85
e 33 89
e 33 93
e 33 103
e 33 108
e 33 117
e 33 123
e 33 131
e 33 138
e 33 145
e 33 153
e 33 159
e 33 168
e 33 173
e 33 187
e 34 35
e 34 36
e 34 37
e 34 38
e 34 39
e 34 40
e 34 41
e 34 42
e 34 47
e 34 48
e 34 49
e 34 60
e 34 62
e 34 64
e 34 73
e 34 76
e 34 79
e 34 86
e 34 90
e 34 94
e 34 99
e 34 104
e 34 109
e 34 118
e 34 124
e 34 132
e 34 139
e 34 146
e 34 154
e 34 160
e 34 174
e 34 188
e 35 36
e 35 37
e 35 38
e 35 39
e 35 40
e 35 41
e 35 42
e 35 48
e 35 49
e 35 50
e 35 61
e 35 63
e 35 65
e 35 74
e 35 77
e 35 80
e 35 87
e 35 91
e 35 95
e 35 100
e 35 105
e 35 110
e 35 113
e 35 119
e 35 125
e 35 133
e 35 140
e 35 147
e 35 161
e 35 175
e 35 189
e 36 37
e 36 38
e 36 39
e 36 40
e 36 41
e 36 42
e 36 49
e 36 50
e 36 51
e 36 62
e 36 64
e 36 66
e 36 75
e 36 78
e 36 81
e 36 88
e 36 92
e 36 96
e 36 101
e 36 106
e 36 111
e 36 114
e 36 120
e 36 126
e 36 127
e 36 134
e 36 148
e 36 162
e 36 176
e 36 190
e 37 38
e 37 39
e 37 40
e 37 41
e 37 42
e 37 50
e 37 51
e 37 52
e 37 63
e 37 65
e 37 67
e 37 76
e 37 79
e 37 82
e 37 89
e 37 93
e 37 97
e 37 102
e 37 107
e 37 112
e 37 115
e 37 121
e 37 128
e 37 135
e 37 141
e 37 149
e 37 163
e 37 177
e 37 191
e 38 39
e 38 40
e 38 41
e 38 42
e 38 51
e 38 52
e 38 53
e 38 64
e 38 66
e 38 68
e 38 77
e 38 80
e 38 83
e 38 90
e 38 94
e 38 98
e 38 103
e 38 108
e 38 116
e 38 122
e 38 129
e 38 136
e 38 142
e 38 150
e 38 155
e 38 164
e 38 178
e 38 192
e 39 40
e 39 41
e 39 42
e 39 52
e 39 53
e 39 54
e 39 65
e 39 67
e 39 69
e 39 78
e 39 81
e 39 84
e 39 91
e 39 95
e 39 104
e 39 109
e 39 117
e 39 123
e 39 130
e 39 137
e 39 143
e 39 151
e 39 156
e 39 165
e 39 169
e 39 179
e 39 193
e 40 41
e 40 42
e 40 53
e 40 54
e 40 55
e 40 66
e 40 68
e 40 70
e 40 79
e 40 82
e 40 92
e 40 96
e 40 105
e 40 110
e 40 118
e 40 124
e 40 131
e 40 138
e 40 144
e 40 152
e 40 157
e 40 166
e 40 170
e 40 180
e 40 183
e 40 194
e 41 42
e 41 54
e 41 55
e 41 56
e 41 67
e 41 69
e 41 80
e 41 83
e 41 93
e 41 97
e 41 106
e 41 111
e 41 119
e 41 125
e 41 132
e 41 139
e 41 145
e 41 153
e 41 158
e 41 167
e 41 171
e 41 181
e 41 184
e 41 195
e 42 55
e 42 56
e 42 68
e 42 70
e 42 81
e 42 84
e 42 94
e 42 98
e 42 107
e 42 112
e 42 120
e 42 126
e 42 133
e 42 140
e 42 146
e 42 154
e 42 159
e 42 168
e 42 172
e 42 182
e 42 185
e 42 196
e 43 44
e 43 45
e 43 46
e 43 47
e 43 48
e 43 49
e 43 50
e 43 51
e 43 52
e 43 53
e 43 54
e 43 55
e 43 56
e 43 57
e 43 58
e 43 71
e 43 73
e 43 85
e 43 88
e 43 99
e 43 103
e 43 113
e 43 118
e 43 127
e 43 133
e 43 141
e 43 148
e 43 155
e 43 163
e 43 169
e 43 178
e 43 183
e 43 193
e 44 45
e 44 46
e 44 47
e 44 48
e 44 49
e 44 50
e 44 51
e 44 52
e 44 53
e 44 54
e 44 55
e 44 56
e 44 57
e 44 58
e 44 59
e 44 72
e 44 74
e 44 86
e 44 89
e 44 100
e 44 104
e 44 114
e 44 119
e 44 128
e 44 134
e 44 142
e 44 149
e 44 156
e 44 164
e 44 170
e 44 179
e 44 184
e 44 194
e 45 46
e 45 47
e 45 48
e 45 49
e 45 50
e 45 51
e 45 52
e 45 53
e 45 54
e 45 55
e 45 56
e 45 58
e 45 59
e 45 60
e 45 71
e 45 73
e 45 75
e 45 87
e 45 90
e 45 101
e 45 105
e 45 115
e 45 120
e 45 129
e 45 135
e 45 143
e 45 150
e 45 157
e 45 165
e 45 171
e 45 180
e 45 185
e 45 195
e 46 47
e 46 48
e 46 49
e 46 50
e 46 51
e 46 52
e 46 53
e 46 54
e 46 55
e 46 56
e 46 59
e 46 60
e 46 61
e 46 72
e 46 74
e 46 76
e 46 85
e 46 88
e 46 91
e 46 102
e 46 106
e 46 116
e 46 121
e 46 130
e 46 136
e 46 144
e 46 151
e 46 158
e 46 166
e 46 172
e 46 181
e 46 186
e 46 196
e 47 48
e 47 49
e 47 50
e 47 51
e 47 52
e 47 53
e 47 54
e 47 55
e 47 56
e 47 60
e 47 61
e 47 62
e 47 73
e 47 75
e 47 77
e 47 86
e 47 89
e 47 92
e 47 99
e 47 103
e 47 107
e 47 117
e 47 122
e 47 131
e 47 137
e 47 145
e 47 152
e 47 159
e 47 167
e 47 173
e 47 182
e 47 187
e 48 49
e 48 50
e 48 51
e 48 52
e 48 53
e 48 54
e 48 55
e 48 56
e 48 61
e 48 62
e 48 63
e 48 74
e 48 76
e 48 78
e 48 87
e 48 90
e 48 93
e 48 100
e 48 104
e 48 108
e 48 113
e 48 118
e 48 123
e 48 132
e 48 138
e 48 146
e 48 153
e 48 160
e 48 168
e 48 174
e 48 188
e 49 50
e 49 51
e 49 52
e 49 53
e 49 54
e 49 55
e 49 56
e 49 62
e 49 63
e 49 64
e 49 75
e 49 77
e 49 79
e 49 88
e 49 91
e 49 94
e 49 101
e 49 105
e 49 109
e 49 114
e 49 119
e 49 124
e 49 127
e 49 133
e 49 139
e 49 147
e 49 154
e 49 161
e 49 175
e 49 189
e 50 51
e 50 52
e 50 53
e 50 54
e 50 55
e 50 56
e 50 63
e 50 64
e 50 65
e 50 76
e 50 78
e 50 80
e 50 89
e 50 92
e 50 95
e 50 102
e 50 106
e 50 110
e 50 115
e 50 120
e 50 125
e 50 128
e 50 134
e 50 140
e 50 141
e 50 148
e 50 162
e 50 176
e 50 190
e 51 52
e 51 53
e 51 54
e 51 55
e 51 56
e 51 64
e 51 65
e 51 66
e 51 77
e 51 79
e 51 81
e 51 90
e 51 93
e 51 96
e 51 103
e 51 107
e 51 111
e 51 116
e 51 121
e 51 126
e 51 129
e 51 135
e 51 142
e 51 149
e 51 155
e 51 163
e 51 177
e 51 191
e 52 53
e 52 54
e 52 55
e 52 56
e 52 65
e 52 66
e 52 67
e 52 78
e 52 80
e 52 82
e 52 91
e 52 94
e 52 97
e 52 104
e 52 108
e 52 112
e 52 117
e 52 122
e 52 130
e 52 136
e 52 143
e 52 150
e 52 156
e 52 164
e 52 169
e 52 178
e 52 192
e 53 54
e 53 55
e 53 56
e 53 66
e 53 67
e 53 68
e 53 79
e 53 81
e 53 83
e 53 92
e 53 95
e 53 98
e 53 105
e 53 109
e 53 118
e 53 123
e 53 131
e 53 137
e 53 144
e 53 151
e 53 157
e 53 165
e 53 170
e 53 179
e 53 183
e 53 193
e 54 55
e 54 56
e 54 67
e 54 68
e 54 69
e 54 80
e 54 82
e 54 84
e 54 93
e 54 96
e 54 106
e 54 110
e 54 119
e 54 124
e 54 132
e 54 138
e 54 145
e 54 152
e 54 158
e 54 166
e 54 171
e 54 180
e 54 184
e 54 194
e 55 56
e 55 68
e 55 69
e 55 70
e 55 81
e 55 83
e 55 94
e 55 97
e 55 107
e 55 111
e 55 120
e 55 125
e 55 133
e 55 139
e 55 146
e 55 153
e 55 159
e 55 167
e 55 172
e 55 181
e 55 185
e 55 195
e 56 69
e 56 70
e 56 82
e 56 84
e 56 95
e 56 98
e 56 108
e 56 112
e 56 121
e 56 126
e 56 134
e 56 140
e 56 147
e 56 154
e 56 160
e 56 168
e 56 173
e 56 182
e 56 186
e 56 196
e 57 58
e 57 59
e 57 60
e 57 61
e 57 62
e 57 63
e 57 64
e 57 65
e 57 66
e 57 67
e 57 68
e 57 69
e 57 70
e 57 71
e 57 72
e 57 85
e 57 87
e 57 99
e 57 102
e 57 113
e 57 117
e 57 127
e 57 132
e 57 141
e 57 147
e 57 155
e 57 162
e 57 169
e 57 177
e 57 183
e 57 192
e 58 59
e 58 60
e 58 61
e 58 62
e 58 63
e 58 64
e 58 65
e 58 66
e 58 67
e 58 68
e 58 69
e 58 70
e 58 71
e 58 72
e 58 73
e 58 86
e 58 88
e 58 100
e 58 103
e 58 114
e 58 118
e 58 128
e 58 133
e 58 142
e 58 148
e 58 156
e 58 163
e 58 170
e 58 178
e 58 184
e 58 193
e 59 60
e 59 61
e 59 62
e 59 63
e 59 64
e 59 65
e 59 66
e 59 67
e 59 68
e 59 69
e 59 70
e 59 72
e 59 73
e 59 74
e 59 85
e 59 87
e 59 89
e 59 101
e 59 104
e 59 115
e 59 119
e 59 129
e 59 134
e 59 143
e 59 149
e 59 157
e 59 164
e 59 171
e 59 179
e 59 185
e 59 194
e 60 61
e 60 62
e 60 63
e 60 64
e 60 65
e 60 66
e 60 67
e 60 68
e 60 69
e 60 70
e 60 73
e 60 74
e 60 75
e 60 86
e 60 88
e 60 90
e 60 99
e 60 102
e 60 105
e 60 116
e 60 120
e 60 130
e 60 135
e 60 144
e 60 150
e 60 158
e 60 165
e 60 172
e 60 180
e 60 186
e 60 195
e 61 62
e 61 63
e 61 64
e 61 65
e 61 66
e 61 67
e 61 68
e 61 69
e 61 70
e 61 74
e 61 75
e 61 76
e 61 87
e 61 89
e 61 91
e 61 100
e 61 103
e 61 106
e 61 113
e 61 117
e 61 121
e 61 131
e 61 136
e 61 145
e 61 151
e 61 159
e 61 166
e 61 173
e 61 181
e 61 187
e 61 196
e 62 63
e 62 64
e 62 65
e 62 66
e 62 67
e 62 68
e 62 69
e 62 70
e 62 75
e 62 76
e 62 77
e 62 88
e 62 90
e 62 92
e 62 101
e 62 104
e 62 107
e 62 114
e 62 118
e 62 122
e 62 127
e 62 132
e 62 137
e 62 146
e 62 152
e 62 160
e 62 167
e 62 174
e 62 182
e 62 188
e 63 64
e 63 65
e 63 66
e 63 67
e 63 68
e 63 69
e 63 70
e 63 76
e 63 77
e 63 78
e 63 89
e 63 91
e 63 93
e 63 102
e 63 105
e 63 108
e 63 115
e 63 119
e 63 123
e 63 128
e 63 133
e 63 138
e 63 141
e 63 147
e 63 153
e 63 161
e 63 168
e 63 175
e 63 189
e 64 65
e 64 66
e 64 67
e 64 68
e 64 69
e 64 70
e 64 77
e 64 78
e 64 79
e 64 90
e 64 92
e 64 94
e 64 103
e 64 106
e 64 109
e 64 116
e 64 120
e 64 124
e 64 129
e 64 134
e 64 139
e 64 142
e 64 148
e 64 154
e 64 155
e 64 162
e 64 176
e 64 190
e 65 66
e 65 67
e 65 68
e 65 69
e 65 70
e 65 78
e 65 79
e 65 80
e 65 91
e 65 93
e 65 95
e 65 104
e 65 107
e 65 110
e 65 117
e 65 121
e 65 125
e 65 130
e 65 135
e 65 140
e 65 143
e 65 149
e 65 156
e 65 163
e 65 169
e 65 177
e 65 191
e 66 67
e 66 68
e 66 69
e 66 70
e 66 79
e 66 80
e 66 81
e 66 92
e 66 94
e 66 96
e 66 105
e 66 108
e 66 111
e 66 118
e 66 122
e 66 126
e 66 131
e 66 136
e 66 144
e 66 150
e 66 157
e 66 164
e 66 170
e 66 178
e 66 183
e 66 192
e 67 68
e 67 69
e 67 70
e 67 80
e 67 81
e 67 82
e 67 93
e 67 95
e 67 97
e 67 106
e 67 109
e 67 112
e 67 119
e 67 123
e 67 132
e 67 137
e 67 145
e 67 151
e 67 158
e 67 165
e 67 171
e 67 179
e 67 184
e 67 193
e 68 69
e 68 70
e 68 81
e 68 82
e 68 83
e 68 94
e 68 96
e 68 98
e 68 107
e 68 110
e 68 120
e 68 124
e 68 133
e 68 138
e 68 146
e 68 152
e 68 159
e 68 166
e 68 172
e 68 180
e 68 185
e 68 194
e 69 70
e 69 82
e 69 83
e 69 84
e 69 95
e 69 97
e 69 108
e 69 111
e 69 121
e 69 125
e 69 134
e 69 139
e 69 147
e 69 153
e 69 160
e 69 167
e 69 173
e 69 181
e 69 186
e 69 195
e 70 83
e 70 84
e 70 96
e 70 98
e 70 109
e 70 112
e 70 122
e 70 126
e 70 135
e 70 140
e 70 148
e 70 154
e 70 161
e 70 168
e 70 174
e 70 182
e 70 187
e 70 196
e 71 72
e 71 73
e 71 74
e 71 75
e 71 76
e 71 77
e 71 78
e 71 79
e 71 80
e 71 81
e 71 82
e 71 83
e 71 84
e 71 85
e 71 86
e 71 99
e 71 101
e 71 113
e 71 116
e 71 127
e 71 131
e 71 141
e 71 146
e 71 155
e 71 161
e 71 169
e 71 176
e 71 183
e 71 191
e 72 73
e 72 74
e 72 75
e 72 76
e 72 77
e 72 78
e 72 79
e 72 80
e 72 81
e 72 82
e 72 83
e 72 84
e 72 85
e 72 86
e 72 87
e 72 100
e 72 102
e 72 114
e 72 117
e 72 128
e 72 132
e 72 142
e 72 147
e 72 156
e 72 162
e 72 170
e 72 177
e 72 184
e 72 192
e 73 74
e 73 75
e 73 76
e 73 77
e 73 78
e 73 79
e 73 80
e 73 81
e 73 82
e 73 83
e 73 84
e 73 86
e 73 87
e 73 88
e 73 99
e 73 101
e 73 103
e 73 115
e 73 118
e 73 129
e 73 133
e 73 143
e 73 148
e 73 157
e 73 163
e 73 171
e 73 178
e 73 185
e 73 193
e 74 75
e 74 76
e 74 77
e 74 78
e 74 79
e 74 80
e 74 81
e 74 82
e 74 83
e 74 84
e 74 87
e 74 88
e 74 89
e 74 100
e 74 102
e 74 104
e 74 113
e 74 116
e 74 119
e 74 130
e 74 134
e 74 144
e 74 149
e 74 158
e 74 164
e 74 172
e 74 179
e 74 186
e 74 194
e 75 76
e 75 77
e 75 78
e 75 79
e 75 80
e 75 81
e 75 82
e 75 83
e 75 84
e 75 88
e 75 89
e 75 90
e 75 101
e 75 103
e 75 105
e 75 114
e 75 117
e 75 120
e 75 127
e 75 131
e 75 135
e 75 145
e 75 150
e 75 159
e 75 165
e 75 173
e 75 180
e 75 187
e 75 195
e 76 77
e 76 78
e 76 79
e 76 80
e 76 81
e 76 82
e 76 83
e 76 84
e 76 89
e 76 90
e 76 91
e 76 102
e 76 104
e 76 106
e 76 115
e 76 118
e 76 121
e 76 128
e 76 132
e 76 136
e 76 141
e 76 146
e 76 151
e 76 160
e 76 166
e 76 174
e 76 181
e 76 188
e 76 196
e 77 78
e 77 79
e 77 80
e 77 81
e 77 82
e 77 83
e 77 84
e 77 90
e 77 91
e 77 92
e 77 103
e 77 105
e 77 107
e 77 116
e 77 119
e 77 122
e 77 129
e 77 133
e 77 137
e 77 142
e 77 147
e 77 152
e 77 155
e 77 161
e 77 167
e 77 175
e 77 182
e 77 189
e 78 79
e 78 80
e 78 81
e 78 82
e 78 83
e 78 84
e 78 91
e 78 92
e 78 93
e 78 104
e 78 106
e 78 108
e 78 117
e 78 120
e 78 123
e 78 130
e 78 134
e 78 138
e 78 143
e 78 148
e 78 153
e 78 156
e 78 162
e 78 168
e 78 169
e 78 176
e 78 190
e 79 80
e 79 81
e 79 82
e 79 83
e 79 84
e 79 92
e 79 93
e 79 94
e 79 105
e 79 107
e 79 109
e 79 118
e 79 121
e 79 124
e 79 131
e 79 135
e 79 139
e 79 144
e 79 149
e 79 154
e 79 157
e 79 163
e 79 170
e 79 177
e 79 183
e 79 191
e 80 81
e 80 82
e 80 83
e 80 84
e 80 93
e 80 94
e 80 95
e 80 106
e 80 108
e 80 110
e 80 119
e 80 122
e 80 125
e 80 132
e 80 136
e 80 140
e 80 145
e 80 150
e 80 158
e 80 164
e 80 171
e 80 178
e 80 184
e 80 192
e 81 82
e 81 83
e 81 84
e 81 94
e 81 95
e 81 96
e 81 107
e 81 109
e 81 111
e 81 120
e 81 123
e 81 126
e 81 133
e 81 137
e 81 146
e 81 151
e 81 159
e 81 165
e 81 172
e 81 179
e 81 185
e 81 193
e 82 83
e 82 84
e 82 95
e 82 96
e 82 97
e 82 108
e 82 110
e 82 112
e 82 121
e 82 124
e 82 134
e 82 138
e 82 147
e 82 152
e 82 160
e 82 166
e 82 173
e 82 180
e 82 186
e 82 194
e 83 84
e 83 96
e 83 97
e 83 98
e 83 109
e 83 111
e 83 122
e 83 125
e 83 135
e 83 139
e 83 148
e 83 153
e 83 161
e 83 167
e 83 174
e 83 181
e 83 187
e 83 195
e 84 97
e 84 98
e 84 110
e 84 112
e 84 123
e 84 126
e 84 136
e 84 140
e 84 149
e 84 154
e 84 162
e 84 168
e 84 175
e 84 182
e 84 188
e 84 196
e 85 86
e 85 87
e 85 88
e 85 89
e 85 90
e 85 91
e 85 92
e 85 93
e 85 94
e 85 95
e 85 96
e 85 97
e 85 98
e 85 99
e 85 100
e 85 113
e 85 115
e 85 127
e 85 130
e 85 141
e 85 145
e 85 155
e 85 160
e 85 169
e 85 175
e 85 183
e 85 190
e 86 87
e 86 88
e 86 89
e 86 90
e 86 91
e 86 92
e 86 93
e 86 94
e 86 95
e 86 96
e 86 97
e 86 98
e 86 99
e 86 100
e 86 101
e 86 114
e 86 116
e 86 128
e 86 131
e 86 142
e 86 146
e 86 156
e 86 161
e 86 170
e 86 176
e 86 184
e 86 191
e 87 88
e 87 89
e 87 90
e 87 91
e 87 92
e 87 93
e 87 94
e 87 95
e 87 96
e 87 97
e 87 98
e 87 100
e 87 101
e 87 102
e 87 113
e 87 115
e 87 117
e 87 129
e 87 132
e 87 143
e 87 147
e 87 157
e 87 162
e 87 171
e 87 177
e 87 185
e 87 192
e 88 89
e 88 90
e 88 91
e 88 92
e 88 93
e 88 94
e 88 95
e 88 96
e 88 97
e 88 98
e 88 101
e 88 102
e 88 103
e 88 114
e 88 116
e 88 118
e 88 127
e 88 130
e 88 133
e 88 144
e 88 148
e 88 158
e 88 163
e 88 172
e 88 178
e 88 186
e 88 193
e 89 90
e 89 91
e 89 92
e 89 93
e 89 94
e 89 95
e 89 96
e 89 97
e 89 98
e 89 102
e 89 103
e 89 104
e 89 115
e 89 117
e 89 119
e 89 128
e 89 131
e 89 134
e 89 141
e 89 145
e 89 149
e 89 159
e 89 164
e 89 173
e 89 179
e 89 187
e 89 194
e 90 91
e 90 92
e 90 93
e 90 94
e 90 95
e 90 96
e 90 97
e 90 98
e 90 103
e 90 104
e 90 105
e 90 116
e 90 118
e 90 120
e 90 129
e 90 132
e 90 135
e 90 142
e 90 146
e 90 150
e 90 155
e 90 160
e 90 165
e 90 174
e 90 180
e 90 188
e 90 195
e 91 92
e 91 93
e 91 94
e 91 95
e 91 96
e 91 97
e 91 98
e 91 104
e 91 105
e 91 106
e 91 117
e 91 119
e 91 121
e 91 130
e 91 133
e 91 136
e 91 143
e 91 147
e 91 151
e 91 156
e 91 161
e 91 166
e 91 169
e 91 175
e 91 181
e 91 189
e 91 196
e 92 93
e 92 94
e 92 95
e 92 96
e 92 97
e 92 98
e 92 105
e 92 106
e 92 107
e 92 118
e 92 120
e 92 122
e 92 131
e 92 134
e 92 137
e 92 144
e 92 148
e 92 152
e 92 157
e 92 162
e 92 167
e 92 170
e 92 176
e 92 182
e 92 183
e 92 190
e 93 94
e 93 95
e 93 96
e 93 97
e 93 98
e 93 106
e 93 107
e 93 108
e 93 119
e 93 121
e 93 123
e 93 132
e 93 135
e 93 138
e 93 145
e 93 149
e 93 153
e 93 158
e 93 163
e 93 168
e 93 171
e 93 177
e 93 184
e 93 191
e 94 95
e 94 96
e 94 97
e 94 98
e 94 107
e 94 108
e 94 109
e 94 120
e 94 122
e 94 124
e 94 133
e 94 136
e 94 139
e 94 146
e 94 150
e 94 154
e 94 159
e 94 164
e 94 172
e 94 178
e 94 185
e 94 192
e 95 96
e 95 97
e 95 98
e 95 108
e 95 109
e 95 110
e 95 121
e 95 123
e 95 125
e 95 134
e 95 137
e 95 140
e 95 147
e 95 151
e 95 160
e 95 165
e 95 173
e 95 179
e 95 186
e 95 193
e 96 97
e 96 98
e 96 109
e 96 110
e 96 111
e 96 122
e 96 124
e 96 126
e 96 135
e 96 138
e 96 148
e 96 152
e 96 161
e 96 166
e 96 174
e 96 180
e 96 187
e 96 194
e 97 98
e 97 110
e 97 111
e 97 112
e 97 123
e 97 125
e 97 136
e 97 139
e 97 149
e 97 153
e 97 162
e 97 167
e 97 175
e 97 181
e 97 188
e 97 195
e 98 111
e 98 112
e 98 124
e 98 126
e 98 137
e 98 140
e 98 150
e 98 154
e 98 163
e 98 168
e 98 176
e 98 182
e 98 189
e 98 196
e 99 100
e 99 101
e 99 102
e 99 103
e 99 104
e 99 105
e 99 106
e 99 107
e 99 108
e 99 109
e 99 110
e 99 111
e 99 112
e 99 113
e 99 114
e 99 127
e 99 129
e 99 141
e 99 144
e 99 155
e 99 159
e 99 169
e 99 174
e 99 183
e 99 189
e 100 101
e 100 102
e 100 103
e 100 104
e 100 105
e 100 106
e 100 107
e 100 108
e 100 109
e 100 110
e 100 111
e 100 112
e 100 113
e 100 114
e 100 115
e 100 128
e 100 130
e 100 142
e 100 145
e 100 156
e 100 160
e 100 170
e 100 175
e 100 184
e 100 190
e 101 102
e 101 103
e 101 104
e 101 105
e 101 106
e 101 107
e 101 108
e 101 109
e 101 110
e 101 111
e 101 112
e 101 114
e 101 115
e 101 116
e 101 127
e 101 129
e 101 131
e 101 143
e 101 146
e 101 157
e 101 161
e 101 171
e 101 176
e 101 185
e 101 191
e 102 103
e 102 104
e 102 105
e 102 106
e 102 107
e 102 108
e 102 109
e 102 110
e 102 111
e 102 112
e 102 115
e 102 116
e 102 117
e 102 128
e 102 130
e 102 132
e 102 141
e 102 144
e 102 147
e 102 158
e 102 162
e 102 172
e 102 177
e 102 186
e 102 192
e 103 104
e 103 105
e 103 106
e 103 107
e 103 108
e 103 109
e 103 110
e 103 111
e 103 112
e 103 116
e 103 117
e 103 118
e 103 129
e 103 131
e 103 133
e 103 142
e 103 145
e 103 148
e 103 155
e 103 159
e 103 163
e 103 173
e 103 178
e 103 187
e 103 193
e 104 105
e 104 106
e 104 107
e 104 108
e 104 109
e 104 110
e 104 111
e 104 112
e 104 117
e 104 118
e 104 119
e 104 130
e 104 132
e 104 134
e 104 143
e 104 146
e 104 149
e 104 156
e 104 160
e 104 164
e 104 169
e 104 174
e 104 179
e 104 188
e 104 194
e 105 106
e 105 107
e 105 108
e 105 109
e 105 110
e 105 111
e 105 112
e 105 118
e 105 119
e 105 120
e 105 131
e 105 133
e 105 135
e 105 144
e 105 147
e 105 150
e 105 157
e 105 161
e 105 165
e 105 170
e 105 175
e 105 180
e 105 183
e 105 189
e 105 195
e 106 107
e 106 108
e 106 109
e 106 110
e 106 111
e 106 112
e 106 119
e 106 120
e 106 121
e 106 132
e 106 134
e 106 136
e 106 145
e 106 148
e 106 151
e 106 158
e 106 162
e 106 166
e 106 171
e 106 176
e 106 181
e 106 184
e 106 190
e 106 196
e 107 108
e 107 109
e 107 110
e 107 111
e 107 112
e 107 120
e 107 121
e 107 122
e 107 133
e 107 135
e 107 137
e 107 146
e 107 149
e 107 152
e 107 159
e 107 163
e 107 167
e 107 172
e 107 177
e 107 182
e 107 185
e 107 191
e 108 109
e 108 110
e 108 111
e 108 112
e 108 121
e 108 122
e 108 123
e 108 134
e 108 136
e 108 138
e 108 147
e 108 150
e 108 153
e 108 160
e 108 164
e 108 168
e 108 173
e 108 178
e 108 186
e 108 192
e 109 110
e 109 111
e 109 112
e 109 122
e 109 123
e 109 124
e 109 135
e 109 137
e 109 139
e 109 148
e 109 151
e 109 154
e 109 161
e 109 165
e 109 174
e 109 179
e 109 187
e 109 193
e 110 111
e 110 112
e 110 123
e 110 124
e 110 125
e 110 136
e 110 138
e 110 140
e 110 149
e 110 152
e 110 162
e 110 166
e 110 175
e 110 180
e 110 188
e 110 194
e 111 112
e 111 124
e 111 125
e 111 126
e 111 137
e 111 139
e 111 150
e 111 153
e 111 163
e 111 167
e 111 176
e 111 181
e 111 189
e 111 195
e 112 125
e 112 126
e 112 138
e 112 140
e 112 151
e 112 154
e 112 164
e 112 168
e 112 177
e 112 182
e 112 190
e 112 196
e 113 114
e 113 115
e 113 116
e 113 117
e 113 118
e 113 119
e 113 120
e 113 121
e 113 122
e 113 123
e 113 124
e 113 125
e 113 126
e 113 127
e 113 128
e 113 141
e 113 143
e 113 155
e 113 158
e 113 169
e 113 173
e 113 183
e 113 188
e 114 115
e 114 116
e 114 117
e 114 118
e 114 119
e 114 120
e 114 121
e 114 122
e 114 123
e 114 124
e 114 125
e 114 126
e 114 127
e 114 128
e 114 129
e 114 142
e 114 144
e 114 156
e 114 159
e 114 170
e 114 174
e 114 184
e 114 189
e 115 116
e 115 117
e 115 118
e 115 119
e 115 120
e 115 121
e 115 122
e 115 123
e 115 124
e 115 125
e 115 126
e 115 128
e 115 129
e 115 130
e 115 141
e 115 143
e 115 145
e 115 157
e 115 160
e 115 171
e 115 175
e 115 185
e 115 190
e 116 117
e 116 118
e 116 119
e 116 120
e 116 121
e 116 122
e 116 123
e 116 124
e 116 125
e 116 126
e 116 129
e 116 130
e 116 131
e 116 142
e 116 144
e 116 146
e 116 155
e 116 158
e 116 161
e 116 172
e 116 176
e 116 186
e 116 191
e 117 118
e 117 119
e 117 120
e 117 121
e 117 122
e 117 123
e 117 124
e 117 125
e 117 126
e 117 130
e 117 131
e 117 132
e 117 143
e 117 145
e 117 147
e 117 156
e 117 159
e 117 162
e 117 169
e 117 173
e 117 177
e 117 187
e 117 192
e 118 119
e 118 120
e 118 121
e 118 122
e 118 123
e 118 124
e 118 125
e 118 126
e 118 131
e 118 132
e 118 133
e 118 144
e 118 146
e 118 148
e 118 157
e 118 160
e 118 163
e 118 170
e 118 174
e 118 178
e 118 183
e 118 188
e 118 193
e 119 120
e 119 121
e 119 122
e 119 123
e 119 124
e 119 125
e 119 126
e 119 132
e 119 133
e 119 134
e 119 145
e 119 147
e 119 149
e 119 158
e 119 161
e 119 164
e 119 171
e 119 175
e 119 179
e 119 184
e 119 189
e 119 194
e 120 121
e 120 122
e 120 123
e 120 124
e 120 125
e 120 126
e 120 133
e 120 134
e 120 135
e 120 146
e 120 148
e 120 150
e 120 159
e 120 162
e 120 165
e 120 172
e 120 176
e 120 180
e 120 185
e 120 190
e 120 195
e 121 122
e 121 123
e 121 124
e 121 125
e 121 126
e 121 134
e 121 135
e 121 136
e 121 147
e 121 149
e 121 151
e 121 160
e 121 163
e 121 166
e 121 173
e 121 177
e 121 181
e 121 186
e 121 191
e 121 196
e 122 123
e 122 124
e 122 125
e 122 126
e 122 135
e 122 136
e 122 137
e 122 148
e 122 150
e 122 152
e 122 161
e 122 164
e 122 167
e 122 174
e 122 178
e 122 182
e 122 187
e 122 192
e 123 124
e 123 125
e 123 126
e 123 136
e 123 137
e 123 138
e 123 149
e 123 151
e 123 153
e 123 162
e 123 165
e 123 168
e 123 175
e 123 179
e 123 188
e 123 193
e 124 125
e 124 126
e 124 137
e 124 138
e 124 139
e 124 150
e 124 152
e 124 154
e 124 163
e 124 166
e 124 176
e 124 180
e 124 189
e 124 194
e 125 126
e 125 138
e 125 139
e 125 140
e 125 151
e 125 153
e 125 164
e 125 167
e 125 177
e 125 181
e 125 190
e 125 195
e 126 139
e 126 140
e 126 152
e 126 154
e 126 165
e 126 168
e 126 178
e 126 182
e 126 191
e 126 196
e 127 128
e 127 129
e 127 130
e 127 131
e 127 132
e 127 133
e 127 134
e 127 135
e 127 136
e 127 137
e 127 138
e 127 139
e 127 140
e 127 141
e 127 142
e 127 155
e 127 157
e 127 169
e 127 172
e 127 183
e 127 187
e 128 129
e 128 130
e 128 131
e 128 132
e 128 133
e 128 134
e 128 135
e 128 136
e 128 137
e 128 138
e 128 139
e 128 140
e 128 141
e 128 142
e 128 143
e 128 156
e 128 158
e 128 170
e 128 173
e 128 184
e 128 188
e 129 130
e 129 131
e 129 132
e 129 133
e 129 134
e 129 135
e 129 136
e 129 137
e 129 138
e 129 139
e 129 140
e 129 142
e 129 143
e 129 144
e 129 155
e 129 157
e 129 159
e 129 171
e 129 174
e 129 185
e 129 189
e 130 131
e 130 132
e 130 133
e 130 134
e 130 135
e 130 136
e 130 137
e 130 138
e 130 139
e 130 140
e 130 143
e 130 144
e 130 145
e 130 156
e 130 158
e 130 160
e 130 169
e 130 172
e 130 175
e 130 186
e 130 190
e 131 132
e 131 133
e 131 134
e 131 135
e 131 136
e 131 137
e 131 138
e 131 139
e 131 140
e 131 144
e 131 145
e 131 146
e 131 157
e 131 159
e 131 161
e 131 170
e 131 173
e 131 176
e 131 183
e 131 187
e 131 191
e 132 133
e 132 134
e 132 135
e 132 136
e 132 137
e 132 138
e 132 139
e 132 140
e 132 145
e 132 146
e 132 147
e 132 158
e 132 160
e 132 162
e 132 171
e 132 174
e 132 177
e 132 184
e 132 188
e 132 192
e 133 134
e 133 135
e 133 136
e 133 137
e 133 138
e 133 139
e 133 140
e 133 146
e 133 147
e 133 148
e 133 159
e 133 161
e 133 163
e 133 172
e 133 175
e 133 178
e 133 185
e 133 189
e 133 193
e 134 135
e 134 136
e 134 137
e 134 138
e 134 139
e 134 140
e 134 147
e 134 148
e 134 149
e 134 160
e 134 162
e 134 164
e 134 173
e 134 176
e 134 179
e 134 186
e 134 190
e 134 194
e 135 136
e 135 137
e 135 138
e 135 139
e 135 140
e 135 148
e 135 149
e 135 150
e 135 161
e 135 163
e 135 165
e 135 174
e 135 177
e 135 180
e 135 187
e 135 191
e 135 195
e 136 137
e 136 138
e 136 139
e 136 140
e 136 149
e 136 150
e 136 151
e 136 162
e 136 164
e 136 166
e 136 175
e 136 178
e 136 181
e 136 188
e 136 192
e 136 196
e 137 138
e 137 139
e 137 140
e 137 150
e 137 151
e 137 152
e 137 163
e 137 165
e 137 167
e 137 176
e 137 179
e 137 182
e 137 189
e 137 193
e 138 139
e 138 140
e 138 151
e 138 152
e 138 153
e 138 164
e 138 166
e 138 168
e 138 177
e 138 180
e 138 190
e 138 194
e 139 140
e 139 152
e 139 153
e 139 154
e 139 165
e 139 167
e 139 178
e 139 181
e 139 191
e 139 195
e 140 153
e 140 154
e 140 166
e 140 168
e 140 179
e 140 182
e 140 192
e 140 196
e 141 142
e 141 143
e 141 144
e 141 145
e 141 146
e 141 147
e 141 148
e 141 149
e 141 150
e 141 151
e 141 152
e 141 153
e 141 154
e 141 155
e 141 156
e 141 169
e 141 171
e 141 183
e 141 186
e 142 143
e 142 144
e 142 145
e 142 146
e 142 147
e 142 148
e 142 149
e 142 150
e 142 151
e 142 152
e 142 153
e 142 154
e 142 155
e 142 156
e 142 157
e 142 170
e 142 172
e 142 184
e 142 187
e 143 144
e 143 145
e 143 146
e 143 147
e 143 148
e 143 149
e 143 150
e 143 151
e 143 152
e 143 153
e 143 154
e 143 156
e 143 157
e 143 158
e 143 169
e 143 171
e 143 173
e 143 185
e 143 188
e 144 145
e 144 146
e 144 147
e 144 148
e 144 149
e 144 150
e 144 151
e 144 152
e 144 153
e 144 154
e 144 157
e 144 158
e 144 159
e 144 170
e 144 172
e 144 174
e 144 183
e 144 186
e 144 189
e 145 146
e 145 147
e 145 148
e 145 149
e 145 150
e 145 151
e 145 152
e 145 153
e 145 154
e 145 158
e 145 159
e 145 160
e 145 171
e 145 173
e 145 175
e 145 184
e 145 187
e 145 190
e 146 147
e 146 148
e 146 149
e 146 150
e 146 151
e 146 152
e 146 153
e 146 154
e 146 159
e 146 160
e 146 161
e 146 172
e 146 174
e 146 176
e 146 185
e 146 188
e 146 191
e 147 148
e 147 149
e 147 150
e 147 151
e 147 152
e 147 153
e 147 154
e 147 160
e 147 161
e 147 162
e 147 173
e 147 175
e 147 177
e 147 186
e 147 189
e 147 192
e 148 149
e 148 150
e 148 151
e 148 152
e 148 153
e 148 154
e 148 161
e 148 162
e 148 163
e 148 174
e 148 176
e 148 178
e 148 187
e 148 190
e 148 193
e 149 150
e 149 151
e 149 152
e 149 153
e 149 154
e 149 162
e 149 163
e 149 164
e 149 175
e 149 177
e 149 179
e 149 188
e 149 191
e 149 194
e 150 151
e 150 152
e 150 153
e 150 154
e 150 163
e 150 164
e 150 165
e 150 176
e 150 178
e 150 180
e 150 189
e 150 192
e 150 195
e 151 152
e 151 153
e 151 154
e 151 164
e 151 165
e 151 166
e 151 177
e 151 179
e 151 181
e 151 190
e 151 193
e 151 196
e 152 153
e 152 154
e 152 165
e 152 166
e 152 167
e 152 178
e 152 180
e 152 182
e 152 191
e 152 194
e 153 154
e 153 166
e 153 167
e 153 168
e 153 179
e 153 181
e 153 192
e 153 195
e 154 167
e 154 168
e 154 180
e 154 182
e 154 193
e 154 196
e 155 156
e 155 157
e 155 158
e 155 159
e 155 160
e 155 161
e 155 162
e 155 163
e 155 164
e 155 165
e 155 166
e 155 167
e 155 168
e 155 169
e 155 170
e 155 183
e 155 185
e 156 157
e 156 158
e 156 159
e 156 160
e 156 161
e 156 162
e 156 163
e 156 164
e 156 165
e 156 166
e 156 167
e 156 168
e 156 169
e 156 170
e 156 171
e 156 184
e 156 186
e 157 158
e 157 159
e 157 160
e 157 161
e 157 162
e 157 163
e 157 164
e 157 165
e 157 166
e 157 167
e 157 168
e 157 170
e 157 171
e 157 172
e 157 183
e 157 185
e 157 187
e 158 159
e 158 160
e 158 161
e 158 162
e 158 163
e 158 164
e 158 165
e 158 166
e 158 167
e 158 168
e 158 171
e 158 172
e 158 173
e 158 184
e 158 186
e 158 188
e 159 160
e 159 161
e 159 162
e 159 163
e 159 164
e 159 165
e 159 166
e 159 167
e 159 168
e 159 172
e 159 173
e 159 174
e 159 185
e 159 187
e 159 189
e 160 161
e 160 162
e 160 163
e 160 164
e 160 165
e 160 166
e 160 167
e 160 168
e 160 173
e 160 174
e 160 175
e 160 186
e 160 188
e 160 190
e 161 162
e 161 163
e 161 164
e 161 165
e 161 166
e 161 167
e 161 168
e 161 174
e 161 175
e 161 176
e 161 187
e 161 189
e 161 191
e 162 163
e 162 164
e 162 165
e 162 166
e 162 167
e 162 168
e 162 175
e 162 176
e 162 177
e 162 188
e 162 190
e 162 192
e 163 164
e 163 165
e 163 166
e 163 167
e 163 168
e 163 176
e 163 177
e 163 178
e 163 189
e 163 191
e 163 193
e 164 165
e 164 166
e 164 167
e 164 168
e 164 177
e 164 178
e 164 179
e 164 190
e 164 192
e 164 194
e 165 166
e 165 167
e 165 168
e 165 178
e 165 179
e 165 180
e 165 191
e 165 193
e 165 195
e 166 167
e 166 168
e 166 179
e 166 180
e 166 181
e 166 192
e 166 194
e 166 196
e 167 168
e 167 180
e 167 181
e 167 182
e 167 193
e 167 195
e 168 181
e 168 182
e 168 194
e 168 196
e 169 170
e 169 171
e 169 172
e 169 173
e 169 174
e 169 175
e 169 176
e 169 177
e 169 178
e 169 179
e 169 180
e 169 181
e 169 182
e 169 183
e 169 184
e 170 171
e 170 172
e 170 173
e 170 174
e 170 175
e 170 176
e 170 177
e 170 178
e 170 179
e 170 180
e 170 181
e 170 182
e 170 183
e 170 184
e 170 185
e 171 172
e 171 173
e 171 174
e 171 175
e 171 176
e 171 177
e 171 178
e 171 179
e 171 180
e 171 181
e 171 182
e 171 184
e 171 185
e 171 186
e 172 173
e 172 174
e 172 175
e 172 176
e 172 177
e 172 178
e 172 179
e 172 180
e 172 181
e 172 182
e 172 185
e 172 186
e 172 187
e 173 174
e 173 175
e 173 176
e 173 177
e 173 178
e 173 179
e 173 180
e 173 181
e 173 182
e 173 186
e 173 187
e 173 188
e 174 175
e 174 176
e 174 177
e 174 178
e 174 179
e 174 180
e 174 181
e 174 182
e 174 187
e 174 188
e 174 189
e 175 176
e 175 177
e 175 178
e 175 179
e 175 180
e 175 181
e 175 182
e 175 188
e 175 189
e 175 190
e 176 177
e 176 178
e 176 179
e 176 180
e 176 181
e 176 182
e 176 189
e 176 190
e 176 191
e 177 178
e 177 179
e 177 180
e 177 181
e 177 182
e 177 190
e 177 191
e 177 192
e 178 179
e 178 180
e 178 181
e 178 182
e 178 191
e 178 192
e 178 193
e 179 180
e 179 181
e 179 182
e 179 192
e 179 193
e 179 194
e 180 181
e 180 182
e 180 193
e 180 194
e 180 195
e 181 182
e 181 194
e 181 195
e 181 196
e 182 195
e 182 196
e 183 184
e 183 185
e 183 186
e 183 187
e 183 188
e 183 189
e 183 190
e 183 191
e 183 192
e 183 193
e 183 194
e 183 195
e 183 196
e 184 185
e 184 186
e 184 187
e 184 188
e 184 189
e 184 190
e 184 191
e 184 192
e 184 193
e 184 194
e 184 195
e 184 196
e 185 186
e 185 187
e 185 188
e 185 189
e 185 190
e 185 191
e 185 192
e 185 193
e 185 194
e 185 195
e 185 196
e 186 187
e 186 188
e 186 189
e 186 190
e 186 191
e 186 192
e 186 193
e 186 194
e 186 195
e 186 196
e 187 188
e 187 189
e 187 190
e 187 191
e 187 192
e 187 193
e 187 194
e 187 195
e 187 196
e 188 189
e 188 190
e 188 191
e 188 192
e 188 193
e 188 194
e 188 195
e 188 196
e 189 190
e 189 191
e 189 192
e 189 193
e 189 194
e 189 195
e 189 196
e 190 191
e 190 192
e 190 193
e 190 194
e 190 195
e 190 196
e 191 192
e 191 193
e 191 194
e 191 195
e 191 196
e 192 193
e 192 194
e 192 195
e 192 196
e 193 194
e 193 195
e 193 196
e 194 195
e 194 196
e 195 196
